# This is a comment. Comments start with #

SECTION_HORIZON
# All instances start at 06:00 on the first day and finish at 06:00 on the last day.
# The planning horizon length in days:
7

SECTION_TASKS
# The number of different tasks
2

SECTION_STAFF
# ID, MinTotalMinutes, MaxTotalMinutes
1,1200,2400
2,2160,2400
3,2040,2400
4,780,1200
5,2100,2400
6,1620,2400
7,2160,2400
8,2160,2400
9,2280,2400
10,780,1200
11,2280,2400
12,2220,2400
13,960,1200
14,960,1200
15,780,1200
16,2280,2400
17,1140,1200
18,1680,2400
19,1620,2400
20,1140,1200
21,1440,2400
22,1860,2400
23,1140,1200
24,1440,2400
25,1440,2400
26,1380,2400
27,2220,2400
28,2220,2400
29,1500,2400
30,2220,2400
31,2100,2400
32,2100,2400
33,1980,2400
34,2160,2400
35,1080,1200
36,1560,2400
37,2220,2400
38,2220,2400
39,2220,2400
40,2220,2400

SECTION_COVER
# Day, Time, TaskID, Min, Max
1,06:00-06:15,1,1,1
1,06:15-06:30,1,2,2
1,06:30-06:45,1,2,2
1,06:45-07:00,1,2,2
1,07:00-07:15,1,2,2
1,07:15-07:30,1,4,4
1,07:30-07:45,1,3,3
1,07:45-08:00,1,2,2
1,08:00-08:15,1,4,4
1,08:15-08:30,1,3,3
1,08:30-08:45,1,2,2
1,08:45-09:00,1,4,4
1,09:00-09:15,1,3,3
1,09:15-09:30,1,3,3
1,09:30-09:45,1,3,3
1,09:45-10:00,1,4,4
1,10:00-10:15,1,3,3
1,10:15-10:30,1,4,4
1,10:30-10:45,1,3,3
1,10:45-11:00,1,2,2
1,11:00-11:15,1,3,3
1,11:15-11:30,1,3,3
1,11:30-11:45,1,3,3
1,11:45-12:00,1,3,3
1,12:00-12:15,1,3,3
1,12:15-12:30,1,4,4
1,12:30-12:45,1,4,4
1,12:45-13:00,1,4,4
1,13:00-13:15,1,3,3
1,13:15-13:30,1,4,4
1,13:30-13:45,1,4,4
1,13:45-14:00,1,3,3
1,14:00-14:15,1,4,4
1,14:15-14:30,1,3,3
1,14:30-14:45,1,3,3
1,14:45-15:00,1,1,1
1,15:00-15:15,1,2,2
1,15:15-15:30,1,3,3
1,15:30-15:45,1,1,1
1,15:45-16:00,1,3,3
1,16:00-16:15,1,1,1
1,16:15-16:30,1,2,2
1,16:30-16:45,1,3,3
1,16:45-17:00,1,3,3
1,17:00-17:15,1,3,3
1,17:15-17:30,1,4,4
1,17:30-17:45,1,4,4
1,17:45-18:00,1,2,2
1,18:00-18:15,1,3,3
1,18:15-18:30,1,2,2
1,18:30-18:45,1,3,3
1,18:45-19:00,1,2,2
1,19:00-19:15,1,3,3
1,19:15-19:30,1,3,3
1,19:30-19:45,1,4,4
1,19:45-20:00,1,4,4
1,20:00-20:15,1,2,2
1,20:15-20:30,1,3,3
1,20:30-20:45,1,4,4
1,20:45-21:00,1,3,3
1,21:00-21:15,1,2,2
1,21:15-21:30,1,3,3
1,21:30-21:45,1,4,4
1,21:45-22:00,1,3,3
1,22:00-22:15,1,2,2
1,22:15-22:30,1,2,2
1,22:30-22:45,1,3,3
1,22:45-23:00,1,1,1
1,23:00-23:15,1,3,3
1,23:15-23:30,1,1,1
1,23:30-23:45,1,2,2
1,23:45-00:00,1,3,3
2,00:00-00:15,1,3,3
2,00:15-00:30,1,2,2
2,00:30-00:45,1,1,1
2,00:45-01:00,1,1,1
2,01:00-01:15,1,2,2
2,01:15-01:30,1,2,2
2,01:30-01:45,1,3,3
2,01:45-02:00,1,2,2
2,02:00-02:15,1,3,3
2,02:15-02:30,1,3,3
2,02:30-02:45,1,2,2
2,02:45-03:00,1,2,2
2,03:00-03:15,1,2,2
2,03:15-03:30,1,3,3
2,03:30-03:45,1,1,1
2,03:45-04:00,1,2,2
2,04:00-04:15,1,2,2
2,04:15-04:30,1,3,3
2,04:30-04:45,1,1,1
2,04:45-05:00,1,2,2
2,05:00-05:15,1,1,1
2,05:15-05:30,1,3,3
2,05:30-05:45,1,3,3
2,05:45-06:00,1,2,2
2,06:00-06:15,1,2,2
2,06:15-06:30,1,3,3
2,06:30-06:45,1,2,2
2,06:45-07:00,1,3,3
2,07:00-07:15,1,2,2
2,07:15-07:30,1,3,3
2,07:30-07:45,1,2,2
2,07:45-08:00,1,2,2
2,08:00-08:15,1,3,3
2,08:15-08:30,1,3,3
2,08:30-08:45,1,2,2
2,08:45-09:00,1,2,2
2,09:00-09:15,1,3,3
2,09:15-09:30,1,3,3
2,09:30-09:45,1,1,1
2,09:45-10:00,1,2,2
2,10:00-10:15,1,2,2
2,10:15-10:30,1,1,1
2,10:30-10:45,1,2,2
2,10:45-11:00,1,2,2
2,11:00-11:15,1,2,2
2,11:15-11:30,1,2,2
2,11:30-11:45,1,2,2
2,11:45-12:00,1,2,2
2,12:00-12:15,1,2,2
2,12:15-12:30,1,3,3
2,12:30-12:45,1,2,2
2,12:45-13:00,1,3,3
2,13:00-13:15,1,1,1
2,13:15-13:30,1,2,2
2,13:30-13:45,1,3,3
2,13:45-14:00,1,1,1
2,14:00-14:15,1,3,3
2,14:15-14:30,1,3,3
2,14:30-14:45,1,3,3
2,14:45-15:00,1,4,4
2,15:00-15:15,1,1,1
2,15:15-15:30,1,3,3
2,15:30-15:45,1,2,2
2,15:45-16:00,1,2,2
2,16:00-16:15,1,3,3
2,16:15-16:30,1,4,4
2,16:30-16:45,1,3,3
2,16:45-17:00,1,2,2
2,17:00-17:15,1,2,2
2,17:15-17:30,1,3,3
2,17:30-17:45,1,2,2
2,17:45-18:00,1,4,4
2,18:00-18:15,1,4,4
2,18:15-18:30,1,3,3
2,18:30-18:45,1,4,4
2,18:45-19:00,1,4,4
2,19:00-19:15,1,3,3
2,19:15-19:30,1,3,3
2,19:30-19:45,1,3,3
2,19:45-20:00,1,2,2
2,20:00-20:15,1,3,3
2,20:15-20:30,1,3,3
2,20:30-20:45,1,3,3
2,20:45-21:00,1,3,3
2,21:00-21:15,1,3,3
2,21:15-21:30,1,3,3
2,21:30-21:45,1,3,3
2,21:45-22:00,1,3,3
2,22:00-22:15,1,4,4
2,22:15-22:30,1,2,2
2,22:30-22:45,1,3,3
2,22:45-23:00,1,4,4
2,23:00-23:15,1,2,2
2,23:15-23:30,1,2,2
2,23:30-23:45,1,2,2
2,23:45-00:00,1,3,3
3,00:00-00:15,1,2,2
3,00:15-00:30,1,3,3
3,00:30-00:45,1,2,2
3,00:45-01:00,1,3,3
3,01:00-01:15,1,4,4
3,01:15-01:30,1,3,3
3,01:30-01:45,1,2,2
3,01:45-02:00,1,3,3
3,02:00-02:15,1,4,4
3,02:15-02:30,1,3,3
3,02:30-02:45,1,4,4
3,02:45-03:00,1,4,4
3,03:00-03:15,1,3,3
3,03:15-03:30,1,4,4
3,03:30-03:45,1,3,3
3,03:45-04:00,1,2,2
3,04:00-04:15,1,3,3
3,04:15-04:30,1,3,3
3,04:30-04:45,1,3,3
3,04:45-05:00,1,3,3
3,05:00-05:15,1,3,3
3,05:15-05:30,1,3,3
3,05:30-05:45,1,4,4
3,05:45-06:00,1,3,3
3,06:00-06:15,1,3,3
3,06:15-06:30,1,3,3
3,06:30-06:45,1,2,2
3,06:45-07:00,1,3,3
3,07:00-07:15,1,3,3
3,07:15-07:30,1,3,3
3,07:30-07:45,1,4,4
3,07:45-08:00,1,4,4
3,08:00-08:15,1,4,4
3,08:15-08:30,1,1,1
3,08:30-08:45,1,3,3
3,08:45-09:00,1,1,1
3,09:00-09:15,1,2,2
3,09:15-09:30,1,3,3
3,09:30-09:45,1,1,1
3,09:45-10:00,1,1,1
3,10:00-10:15,1,2,2
3,10:15-10:30,1,3,3
3,10:30-10:45,1,3,3
3,10:45-11:00,1,2,2
3,11:00-11:15,1,3,3
3,11:15-11:30,1,2,2
3,11:30-11:45,1,3,3
3,11:45-12:00,1,1,1
3,12:00-12:15,1,2,2
3,12:15-12:30,1,2,2
3,12:30-12:45,1,2,2
3,12:45-13:00,1,2,2
3,13:00-13:15,1,3,3
3,13:15-13:30,1,1,1
3,13:30-13:45,1,2,2
3,13:45-14:00,1,2,2
3,14:00-14:15,1,3,3
3,14:15-14:30,1,3,3
3,14:30-14:45,1,2,2
3,14:45-15:00,1,3,3
3,15:00-15:15,1,2,2
3,15:15-15:30,1,3,3
3,15:30-15:45,1,3,3
3,15:45-16:00,1,3,3
3,16:00-16:15,1,3,3
3,16:15-16:30,1,1,1
3,16:30-16:45,1,3,3
3,16:45-17:00,1,2,2
3,17:00-17:15,1,3,3
3,17:15-17:30,1,2,2
3,17:30-17:45,1,4,4
3,17:45-18:00,1,3,3
3,18:00-18:15,1,3,3
3,18:15-18:30,1,3,3
3,18:30-18:45,1,4,4
3,18:45-19:00,1,3,3
3,19:00-19:15,1,3,3
3,19:15-19:30,1,3,3
3,19:30-19:45,1,4,4
3,19:45-20:00,1,3,3
3,20:00-20:15,1,2,2
3,20:15-20:30,1,3,3
3,20:30-20:45,1,3,3
3,20:45-21:00,1,3,3
3,21:00-21:15,1,3,3
3,21:15-21:30,1,2,2
3,21:30-21:45,1,1,1
3,21:45-22:00,1,2,2
3,22:00-22:15,1,2,2
3,22:15-22:30,1,2,2
3,22:30-22:45,1,2,2
3,22:45-23:00,1,3,3
3,23:00-23:15,1,3,3
3,23:15-23:30,1,3,3
3,23:30-23:45,1,2,2
3,23:45-00:00,1,4,4
4,00:00-00:15,1,3,3
4,00:15-00:30,1,3,3
4,00:30-00:45,1,4,4
4,00:45-01:00,1,3,3
4,01:00-01:15,1,3,3
4,01:15-01:30,1,3,3
4,01:30-01:45,1,3,3
4,01:45-02:00,1,4,4
4,02:00-02:15,1,4,4
4,02:15-02:30,1,3,3
4,02:30-02:45,1,3,3
4,02:45-03:00,1,3,3
4,03:00-03:15,1,2,2
4,03:15-03:30,1,1,1
4,03:30-03:45,1,1,1
4,03:45-04:00,1,1,1
4,04:00-04:15,1,2,2
4,04:15-04:30,1,2,2
4,04:30-04:45,1,2,2
4,04:45-05:00,1,1,1
4,05:00-05:15,1,3,3
4,05:15-05:30,1,2,2
4,05:30-05:45,1,2,2
4,05:45-06:00,1,2,2
4,06:00-06:15,1,1,1
4,06:15-06:30,1,2,2
4,06:30-06:45,1,4,4
4,06:45-07:00,1,3,3
4,07:00-07:15,1,2,2
4,07:15-07:30,1,4,4
4,07:30-07:45,1,3,3
4,07:45-08:00,1,4,4
4,08:00-08:15,1,3,3
4,08:15-08:30,1,4,4
4,08:30-08:45,1,3,3
4,08:45-09:00,1,1,1
4,09:00-09:15,1,2,2
4,09:15-09:30,1,2,2
4,09:30-09:45,1,1,1
4,09:45-10:00,1,3,3
4,10:00-10:15,1,4,4
4,10:15-10:30,1,4,4
4,10:30-10:45,1,2,2
4,10:45-11:00,1,3,3
4,11:00-11:15,1,2,2
4,11:15-11:30,1,3,3
4,11:30-11:45,1,3,3
4,11:45-12:00,1,3,3
4,12:00-12:15,1,3,3
4,12:15-12:30,1,3,3
4,12:30-12:45,1,2,2
4,12:45-13:00,1,2,2
4,13:00-13:15,1,1,1
4,13:15-13:30,1,3,3
4,13:30-13:45,1,1,1
4,13:45-14:00,1,1,1
4,14:00-14:15,1,3,3
4,14:15-14:30,1,2,2
4,14:30-14:45,1,3,3
4,14:45-15:00,1,3,3
4,15:00-15:15,1,4,4
4,15:15-15:30,1,3,3
4,15:30-15:45,1,4,4
4,15:45-16:00,1,4,4
4,16:00-16:15,1,4,4
4,16:15-16:30,1,2,2
4,16:30-16:45,1,3,3
4,16:45-17:00,1,3,3
4,17:00-17:15,1,3,3
4,17:15-17:30,1,4,4
4,17:30-17:45,1,4,4
4,17:45-18:00,1,3,3
4,18:00-18:15,1,2,2
4,18:15-18:30,1,3,3
4,18:30-18:45,1,3,3
4,18:45-19:00,1,4,4
4,19:00-19:15,1,3,3
4,19:15-19:30,1,2,2
4,19:30-19:45,1,3,3
4,19:45-20:00,1,3,3
4,20:00-20:15,1,3,3
4,20:15-20:30,1,1,1
4,20:30-20:45,1,2,2
4,20:45-21:00,1,2,2
4,21:00-21:15,1,2,2
4,21:15-21:30,1,3,3
4,21:30-21:45,1,3,3
4,21:45-22:00,1,3,3
4,22:00-22:15,1,4,4
4,22:15-22:30,1,3,3
4,22:30-22:45,1,3,3
4,22:45-23:00,1,4,4
4,23:00-23:15,1,3,3
4,23:15-23:30,1,4,4
4,23:30-23:45,1,3,3
4,23:45-00:00,1,2,2
5,00:00-00:15,1,1,1
5,00:15-00:30,1,2,2
5,00:30-00:45,1,3,3
5,00:45-01:00,1,4,4
5,01:00-01:15,1,3,3
5,01:15-01:30,1,2,2
5,01:30-01:45,1,3,3
5,01:45-02:00,1,3,3
5,02:00-02:15,1,3,3
5,02:15-02:30,1,4,4
5,02:30-02:45,1,3,3
5,02:45-03:00,1,3,3
5,03:00-03:15,1,3,3
5,03:15-03:30,1,3,3
5,03:30-03:45,1,4,4
5,03:45-04:00,1,3,3
5,04:00-04:15,1,3,3
5,04:15-04:30,1,2,2
5,04:30-04:45,1,3,3
5,04:45-05:00,1,3,3
5,05:00-05:15,1,2,2
5,05:15-05:30,1,2,2
5,05:30-05:45,1,2,2
5,05:45-06:00,1,1,1
5,06:00-06:15,1,3,3
5,06:15-06:30,1,4,4
5,06:30-06:45,1,3,3
5,06:45-07:00,1,3,3
5,07:00-07:15,1,3,3
5,07:15-07:30,1,2,2
5,07:30-07:45,1,4,4
5,07:45-08:00,1,2,2
5,08:00-08:15,1,3,3
5,08:15-08:30,1,3,3
5,08:30-08:45,1,3,3
5,08:45-09:00,1,2,2
5,09:00-09:15,1,3,3
5,09:15-09:30,1,3,3
5,09:30-09:45,1,2,2
5,09:45-10:00,1,4,4
5,10:00-10:15,1,3,3
5,10:15-10:30,1,3,3
5,10:30-10:45,1,3,3
5,10:45-11:00,1,2,2
5,11:00-11:15,1,2,2
5,11:15-11:30,1,2,2
5,11:30-11:45,1,3,3
5,11:45-12:00,1,2,2
5,12:00-12:15,1,3,3
5,12:15-12:30,1,3,3
5,12:30-12:45,1,2,2
5,12:45-13:00,1,2,2
5,13:00-13:15,1,2,2
5,13:15-13:30,1,2,2
5,13:30-13:45,1,2,2
5,13:45-14:00,1,3,3
5,14:00-14:15,1,3,3
5,14:15-14:30,1,3,3
5,14:30-14:45,1,1,1
5,14:45-15:00,1,3,3
5,15:00-15:15,1,3,3
5,15:15-15:30,1,4,4
5,15:30-15:45,1,4,4
5,15:45-16:00,1,3,3
5,16:00-16:15,1,3,3
5,16:15-16:30,1,3,3
5,16:30-16:45,1,3,3
5,16:45-17:00,1,1,1
5,17:00-17:15,1,3,3
5,17:15-17:30,1,3,3
5,17:30-17:45,1,1,1
5,17:45-18:00,1,3,3
5,18:00-18:15,1,4,4
5,18:15-18:30,1,3,3
5,18:30-18:45,1,4,4
5,18:45-19:00,1,3,3
5,19:00-19:15,1,3,3
5,19:15-19:30,1,2,2
5,19:30-19:45,1,4,4
5,19:45-20:00,1,1,1
5,20:00-20:15,1,3,3
5,20:15-20:30,1,1,1
5,20:30-20:45,1,3,3
5,20:45-21:00,1,3,3
5,21:00-21:15,1,2,2
5,21:15-21:30,1,1,1
5,21:30-21:45,1,2,2
5,21:45-22:00,1,2,2
5,22:00-22:15,1,3,3
5,22:15-22:30,1,3,3
5,22:30-22:45,1,2,2
5,22:45-23:00,1,3,3
5,23:00-23:15,1,2,2
5,23:15-23:30,1,3,3
5,23:30-23:45,1,1,1
5,23:45-00:00,1,4,4
6,00:00-00:15,1,2,2
6,00:15-00:30,1,2,2
6,00:30-00:45,1,3,3
6,00:45-01:00,1,3,3
6,01:00-01:15,1,3,3
6,01:15-01:30,1,4,4
6,01:30-01:45,1,3,3
6,01:45-02:00,1,4,4
6,02:00-02:15,1,3,3
6,02:15-02:30,1,3,3
6,02:30-02:45,1,4,4
6,02:45-03:00,1,3,3
6,03:00-03:15,1,2,2
6,03:15-03:30,1,1,1
6,03:30-03:45,1,2,2
6,03:45-04:00,1,3,3
6,04:00-04:15,1,3,3
6,04:15-04:30,1,1,1
6,04:30-04:45,1,2,2
6,04:45-05:00,1,2,2
6,05:00-05:15,1,3,3
6,05:15-05:30,1,1,1
6,05:30-05:45,1,1,1
6,05:45-06:00,1,1,1
6,06:00-06:15,1,3,3
6,06:15-06:30,1,2,2
6,06:30-06:45,1,2,2
6,06:45-07:00,1,4,4
6,07:00-07:15,1,3,3
6,07:15-07:30,1,3,3
6,07:30-07:45,1,2,2
6,07:45-08:00,1,4,4
6,08:00-08:15,1,3,3
6,08:15-08:30,1,3,3
6,08:30-08:45,1,2,2
6,08:45-09:00,1,2,2
6,09:00-09:15,1,3,3
6,09:15-09:30,1,2,2
6,09:30-09:45,1,3,3
6,09:45-10:00,1,2,2
6,10:00-10:15,1,3,3
6,10:15-10:30,1,4,4
6,10:30-10:45,1,3,3
6,10:45-11:00,1,4,4
6,11:00-11:15,1,3,3
6,11:15-11:30,1,3,3
6,11:30-11:45,1,4,4
6,11:45-12:00,1,3,3
6,12:00-12:15,1,3,3
6,12:15-12:30,1,3,3
6,12:30-12:45,1,4,4
6,12:45-13:00,1,2,2
6,13:00-13:15,1,2,2
6,13:15-13:30,1,2,2
6,13:30-13:45,1,1,1
6,13:45-14:00,1,3,3
6,14:00-14:15,1,2,2
6,14:15-14:30,1,2,2
6,14:30-14:45,1,3,3
6,14:45-15:00,1,3,3
6,15:00-15:15,1,3,3
6,15:15-15:30,1,4,4
6,15:30-15:45,1,3,3
6,15:45-16:00,1,2,2
6,16:00-16:15,1,2,2
6,16:15-16:30,1,2,2
6,16:30-16:45,1,1,1
6,16:45-17:00,1,3,3
6,17:00-17:15,1,3,3
6,17:15-17:30,1,2,2
6,17:30-17:45,1,4,4
6,17:45-18:00,1,3,3
6,18:00-18:15,1,4,4
6,18:15-18:30,1,3,3
6,18:30-18:45,1,2,2
6,18:45-19:00,1,2,2
6,19:00-19:15,1,4,4
6,19:15-19:30,1,3,3
6,19:30-19:45,1,4,4
6,19:45-20:00,1,2,2
6,20:00-20:15,1,3,3
6,20:15-20:30,1,3,3
6,20:30-20:45,1,3,3
6,20:45-21:00,1,4,4
6,21:00-21:15,1,4,4
6,21:15-21:30,1,2,2
6,21:30-21:45,1,2,2
6,21:45-22:00,1,4,4
6,22:00-22:15,1,4,4
6,22:15-22:30,1,2,2
6,22:30-22:45,1,1,1
6,22:45-23:00,1,2,2
6,23:00-23:15,1,3,3
6,23:15-23:30,1,1,1
6,23:30-23:45,1,2,2
6,23:45-00:00,1,3,3
7,00:00-00:15,1,3,3
7,00:15-00:30,1,2,2
7,00:30-00:45,1,3,3
7,00:45-01:00,1,2,2
7,01:00-01:15,1,3,3
7,01:15-01:30,1,3,3
7,01:30-01:45,1,1,1
7,01:45-02:00,1,2,2
7,02:00-02:15,1,2,2
7,02:15-02:30,1,2,2
7,02:30-02:45,1,2,2
7,02:45-03:00,1,2,2
7,03:00-03:15,1,2,2
7,03:15-03:30,1,3,3
7,03:30-03:45,1,1,1
7,03:45-04:00,1,3,3
7,04:00-04:15,1,2,2
7,04:15-04:30,1,2,2
7,04:30-04:45,1,3,3
7,04:45-05:00,1,3,3
7,05:00-05:15,1,2,2
7,05:15-05:30,1,2,2
7,05:30-05:45,1,2,2
7,05:45-06:00,1,1,1
7,06:00-06:15,1,3,3
7,06:15-06:30,1,1,1
7,06:30-06:45,1,2,2
7,06:45-07:00,1,1,1
7,07:00-07:15,1,3,3
7,07:15-07:30,1,3,3
7,07:30-07:45,1,3,3
7,07:45-08:00,1,3,3
7,08:00-08:15,1,4,4
7,08:15-08:30,1,3,3
7,08:30-08:45,1,2,2
7,08:45-09:00,1,3,3
7,09:00-09:15,1,2,2
7,09:15-09:30,1,2,2
7,09:30-09:45,1,2,2
7,09:45-10:00,1,3,3
7,10:00-10:15,1,2,2
7,10:15-10:30,1,1,1
7,10:30-10:45,1,2,2
7,10:45-11:00,1,2,2
7,11:00-11:15,1,2,2
7,11:15-11:30,1,3,3
7,11:30-11:45,1,1,1
7,11:45-12:00,1,3,3
7,12:00-12:15,1,2,2
7,12:15-12:30,1,2,2
7,12:30-12:45,1,1,1
7,12:45-13:00,1,2,2
7,13:00-13:15,1,1,1
7,13:15-13:30,1,2,2
7,13:30-13:45,1,2,2
7,13:45-14:00,1,3,3
7,14:00-14:15,1,3,3
7,14:15-14:30,1,2,2
7,14:30-14:45,1,2,2
7,14:45-15:00,1,2,2
7,15:00-15:15,1,4,4
7,15:15-15:30,1,4,4
7,15:30-15:45,1,3,3
7,15:45-16:00,1,3,3
7,16:00-16:15,1,3,3
7,16:15-16:30,1,4,4
7,16:30-16:45,1,3,3
7,16:45-17:00,1,3,3
7,17:00-17:15,1,2,2
7,17:15-17:30,1,3,3
7,17:30-17:45,1,2,2
7,17:45-18:00,1,4,4
7,18:00-18:15,1,2,2
7,18:15-18:30,1,4,4
7,18:30-18:45,1,3,3
7,18:45-19:00,1,2,2
7,19:00-19:15,1,1,1
7,19:15-19:30,1,3,3
7,19:30-19:45,1,2,2
7,19:45-20:00,1,1,1
7,20:00-20:15,1,3,3
7,20:15-20:30,1,2,2
7,20:30-20:45,1,2,2
7,20:45-21:00,1,2,2
7,21:00-21:15,1,1,1
7,21:15-21:30,1,1,1
7,21:30-21:45,1,2,2
7,21:45-22:00,1,2,2
7,22:00-22:15,1,3,3
7,22:15-22:30,1,2,2
7,22:30-22:45,1,4,4
7,22:45-23:00,1,3,3
7,23:00-23:15,1,3,3
7,23:15-23:30,1,4,4
7,23:30-23:45,1,2,2
7,23:45-00:00,1,3,3
8,00:00-00:15,1,4,4
8,00:15-00:30,1,4,4
8,00:30-00:45,1,3,3
8,00:45-01:00,1,2,2
8,01:00-01:15,1,3,3
8,01:15-01:30,1,3,3
8,01:30-01:45,1,2,2
8,01:45-02:00,1,1,1
8,02:00-02:15,1,2,2
8,02:15-02:30,1,2,2
8,02:30-02:45,1,2,2
8,02:45-03:00,1,2,2
8,03:00-03:15,1,1,1
8,03:15-03:30,1,2,2
8,03:30-03:45,1,3,3
8,03:45-04:00,1,1,1
8,04:00-04:15,1,3,3
8,04:15-04:30,1,2,2
8,04:30-04:45,1,2,2
8,04:45-05:00,1,2,2
8,05:00-05:15,1,2,2
8,05:15-05:30,1,3,3
8,05:30-05:45,1,1,1
8,05:45-06:00,1,2,2
1,06:00-06:15,2,2,2
1,06:15-06:30,2,2,2
1,06:30-06:45,2,2,2
1,06:45-07:00,2,3,3
1,07:00-07:15,2,2,2
1,07:15-07:30,2,3,3
1,07:30-07:45,2,2,2
1,07:45-08:00,2,1,1
1,08:00-08:15,2,3,3
1,08:15-08:30,2,2,2
1,08:30-08:45,2,2,2
1,08:45-09:00,2,2,2
1,09:00-09:15,2,3,3
1,09:15-09:30,2,3,3
1,09:30-09:45,2,2,2
1,09:45-10:00,2,1,1
1,10:00-10:15,2,1,1
1,10:15-10:30,2,2,2
1,10:30-10:45,2,2,2
1,10:45-11:00,2,3,3
1,11:00-11:15,2,3,3
1,11:15-11:30,2,2,2
1,11:30-11:45,2,2,2
1,11:45-12:00,2,2,2
1,12:00-12:15,2,3,3
1,12:15-12:30,2,3,3
1,12:30-12:45,2,2,2
1,12:45-13:00,2,1,1
1,13:00-13:15,2,2,2
1,13:15-13:30,2,3,3
1,13:30-13:45,2,2,2
1,13:45-14:00,2,3,3
1,14:00-14:15,2,3,3
1,14:15-14:30,2,2,2
1,14:30-14:45,2,2,2
1,14:45-15:00,2,1,1
1,15:00-15:15,2,3,3
1,15:15-15:30,2,4,4
1,15:30-15:45,2,3,3
1,15:45-16:00,2,3,3
1,16:00-16:15,2,2,2
1,16:15-16:30,2,3,3
1,16:30-16:45,2,3,3
1,16:45-17:00,2,3,3
1,17:00-17:15,2,2,2
1,17:15-17:30,2,3,3
1,17:30-17:45,2,3,3
1,17:45-18:00,2,4,4
1,18:00-18:15,2,4,4
1,18:15-18:30,2,3,3
1,18:30-18:45,2,2,2
1,18:45-19:00,2,4,4
1,19:00-19:15,2,3,3
1,19:15-19:30,2,2,2
1,19:30-19:45,2,3,3
1,19:45-20:00,2,3,3
1,20:00-20:15,2,3,3
1,20:15-20:30,2,2,2
1,20:30-20:45,2,4,4
1,20:45-21:00,2,3,3
1,21:00-21:15,2,2,2
1,21:15-21:30,2,2,2
1,21:30-21:45,2,3,3
1,21:45-22:00,2,3,3
1,22:00-22:15,2,2,2
1,22:15-22:30,2,2,2
1,22:30-22:45,2,3,3
1,22:45-23:00,2,1,1
1,23:00-23:15,2,2,2
1,23:15-23:30,2,3,3
1,23:30-23:45,2,4,4
1,23:45-00:00,2,2,2
2,00:00-00:15,2,4,4
2,00:15-00:30,2,4,4
2,00:30-00:45,2,3,3
2,00:45-01:00,2,3,3
2,01:00-01:15,2,4,4
2,01:15-01:30,2,4,4
2,01:30-01:45,2,3,3
2,01:45-02:00,2,3,3
2,02:00-02:15,2,3,3
2,02:15-02:30,2,3,3
2,02:30-02:45,2,1,1
2,02:45-03:00,2,3,3
2,03:00-03:15,2,3,3
2,03:15-03:30,2,2,2
2,03:30-03:45,2,2,2
2,03:45-04:00,2,2,2
2,04:00-04:15,2,3,3
2,04:15-04:30,2,1,1
2,04:30-04:45,2,3,3
2,04:45-05:00,2,1,1
2,05:00-05:15,2,3,3
2,05:15-05:30,2,1,1
2,05:30-05:45,2,1,1
2,05:45-06:00,2,1,1
2,06:00-06:15,2,2,2
2,06:15-06:30,2,2,2
2,06:30-06:45,2,2,2
2,06:45-07:00,2,4,4
2,07:00-07:15,2,3,3
2,07:15-07:30,2,1,1
2,07:30-07:45,2,3,3
2,07:45-08:00,2,3,3
2,08:00-08:15,2,3,3
2,08:15-08:30,2,4,4
2,08:30-08:45,2,3,3
2,08:45-09:00,2,2,2
2,09:00-09:15,2,3,3
2,09:15-09:30,2,1,1
2,09:30-09:45,2,2,2
2,09:45-10:00,2,2,2
2,10:00-10:15,2,3,3
2,10:15-10:30,2,3,3
2,10:30-10:45,2,1,1
2,10:45-11:00,2,3,3
2,11:00-11:15,2,2,2
2,11:15-11:30,2,3,3
2,11:30-11:45,2,1,1
2,11:45-12:00,2,1,1
2,12:00-12:15,2,3,3
2,12:15-12:30,2,2,2
2,12:30-12:45,2,2,2
2,12:45-13:00,2,2,2
2,13:00-13:15,2,2,2
2,13:15-13:30,2,2,2
2,13:30-13:45,2,2,2
2,13:45-14:00,2,2,2
2,14:00-14:15,2,3,3
2,14:15-14:30,2,3,3
2,14:30-14:45,2,2,2
2,14:45-15:00,2,3,3
2,15:00-15:15,2,2,2
2,15:15-15:30,2,2,2
2,15:30-15:45,2,3,3
2,15:45-16:00,2,2,2
2,16:00-16:15,2,2,2
2,16:15-16:30,2,2,2
2,16:30-16:45,2,2,2
2,16:45-17:00,2,3,3
2,17:00-17:15,2,2,2
2,17:15-17:30,2,4,4
2,17:30-17:45,2,4,4
2,17:45-18:00,2,4,4
2,18:00-18:15,2,3,3
2,18:15-18:30,2,3,3
2,18:30-18:45,2,2,2
2,18:45-19:00,2,2,2
2,19:00-19:15,2,1,1
2,19:15-19:30,2,2,2
2,19:30-19:45,2,2,2
2,19:45-20:00,2,2,2
2,20:00-20:15,2,2,2
2,20:15-20:30,2,2,2
2,20:30-20:45,2,3,3
2,20:45-21:00,2,2,2
2,21:00-21:15,2,3,3
2,21:15-21:30,2,2,2
2,21:30-21:45,2,1,1
2,21:45-22:00,2,3,3
2,22:00-22:15,2,3,3
2,22:15-22:30,2,2,2
2,22:30-22:45,2,3,3
2,22:45-23:00,2,3,3
2,23:00-23:15,2,4,4
2,23:15-23:30,2,3,3
2,23:30-23:45,2,2,2
2,23:45-00:00,2,3,3
3,00:00-00:15,2,4,4
3,00:15-00:30,2,3,3
3,00:30-00:45,2,3,3
3,00:45-01:00,2,4,4
3,01:00-01:15,2,3,3
3,01:15-01:30,2,3,3
3,01:30-01:45,2,2,2
3,01:45-02:00,2,2,2
3,02:00-02:15,2,4,4
3,02:15-02:30,2,3,3
3,02:30-02:45,2,4,4
3,02:45-03:00,2,3,3
3,03:00-03:15,2,3,3
3,03:15-03:30,2,4,4
3,03:30-03:45,2,3,3
3,03:45-04:00,2,3,3
3,04:00-04:15,2,4,4
3,04:15-04:30,2,3,3
3,04:30-04:45,2,4,4
3,04:45-05:00,2,1,1
3,05:00-05:15,2,2,2
3,05:15-05:30,2,2,2
3,05:30-05:45,2,2,2
3,05:45-06:00,2,3,3
3,06:00-06:15,2,2,2
3,06:15-06:30,2,2,2
3,06:30-06:45,2,1,1
3,06:45-07:00,2,3,3
3,07:00-07:15,2,3,3
3,07:15-07:30,2,2,2
3,07:30-07:45,2,4,4
3,07:45-08:00,2,3,3
3,08:00-08:15,2,2,2
3,08:15-08:30,2,3,3
3,08:30-08:45,2,3,3
3,08:45-09:00,2,3,3
3,09:00-09:15,2,4,4
3,09:15-09:30,2,3,3
3,09:30-09:45,2,1,1
3,09:45-10:00,2,1,1
3,10:00-10:15,2,2,2
3,10:15-10:30,2,3,3
3,10:30-10:45,2,3,3
3,10:45-11:00,2,2,2
3,11:00-11:15,2,2,2
3,11:15-11:30,2,3,3
3,11:30-11:45,2,2,2
3,11:45-12:00,2,3,3
3,12:00-12:15,2,3,3
3,12:15-12:30,2,3,3
3,12:30-12:45,2,2,2
3,12:45-13:00,2,2,2
3,13:00-13:15,2,2,2
3,13:15-13:30,2,3,3
3,13:30-13:45,2,3,3
3,13:45-14:00,2,2,2
3,14:00-14:15,2,1,1
3,14:15-14:30,2,2,2
3,14:30-14:45,2,3,3
3,14:45-15:00,2,3,3
3,15:00-15:15,2,3,3
3,15:15-15:30,2,3,3
3,15:30-15:45,2,4,4
3,15:45-16:00,2,3,3
3,16:00-16:15,2,2,2
3,16:15-16:30,2,2,2
3,16:30-16:45,2,1,1
3,16:45-17:00,2,3,3
3,17:00-17:15,2,3,3
3,17:15-17:30,2,3,3
3,17:30-17:45,2,4,4
3,17:45-18:00,2,2,2
3,18:00-18:15,2,3,3
3,18:15-18:30,2,3,3
3,18:30-18:45,2,4,4
3,18:45-19:00,2,4,4
3,19:00-19:15,2,3,3
3,19:15-19:30,2,3,3
3,19:30-19:45,2,1,1
3,19:45-20:00,2,2,2
3,20:00-20:15,2,1,1
3,20:15-20:30,2,3,3
3,20:30-20:45,2,3,3
3,20:45-21:00,2,3,3
3,21:00-21:15,2,4,4
3,21:15-21:30,2,3,3
3,21:30-21:45,2,4,4
3,21:45-22:00,2,3,3
3,22:00-22:15,2,4,4
3,22:15-22:30,2,3,3
3,22:30-22:45,2,3,3
3,22:45-23:00,2,3,3
3,23:00-23:15,2,4,4
3,23:15-23:30,2,3,3
3,23:30-23:45,2,3,3
3,23:45-00:00,2,2,2
4,00:00-00:15,2,1,1
4,00:15-00:30,2,2,2
4,00:30-00:45,2,2,2
4,00:45-01:00,2,1,1
4,01:00-01:15,2,3,3
4,01:15-01:30,2,2,2
4,01:30-01:45,2,2,2
4,01:45-02:00,2,2,2
4,02:00-02:15,2,1,1
4,02:15-02:30,2,2,2
4,02:30-02:45,2,3,3
4,02:45-03:00,2,3,3
4,03:00-03:15,2,3,3
4,03:15-03:30,2,1,1
4,03:30-03:45,2,2,2
4,03:45-04:00,2,2,2
4,04:00-04:15,2,2,2
4,04:15-04:30,2,2,2
4,04:30-04:45,2,3,3
4,04:45-05:00,2,3,3
4,05:00-05:15,2,1,1
4,05:15-05:30,2,2,2
4,05:30-05:45,2,2,2
4,05:45-06:00,2,2,2
4,06:00-06:15,2,4,4
4,06:15-06:30,2,4,4
4,06:30-06:45,2,2,2
4,06:45-07:00,2,2,2
4,07:00-07:15,2,3,3
4,07:15-07:30,2,2,2
4,07:30-07:45,2,1,1
4,07:45-08:00,2,2,2
4,08:00-08:15,2,2,2
4,08:15-08:30,2,3,3
4,08:30-08:45,2,4,4
4,08:45-09:00,2,3,3
4,09:00-09:15,2,3,3
4,09:15-09:30,2,2,2
4,09:30-09:45,2,3,3
4,09:45-10:00,2,3,3
4,10:00-10:15,2,4,4
4,10:15-10:30,2,4,4
4,10:30-10:45,2,3,3
4,10:45-11:00,2,3,3
4,11:00-11:15,2,3,3
4,11:15-11:30,2,2,2
4,11:30-11:45,2,3,3
4,11:45-12:00,2,3,3
4,12:00-12:15,2,4,4
4,12:15-12:30,2,2,2
4,12:30-12:45,2,3,3
4,12:45-13:00,2,3,3
4,13:00-13:15,2,2,2
4,13:15-13:30,2,3,3
4,13:30-13:45,2,2,2
4,13:45-14:00,2,3,3
4,14:00-14:15,2,2,2
4,14:15-14:30,2,3,3
4,14:30-14:45,2,3,3
4,14:45-15:00,2,4,4
4,15:00-15:15,2,2,2
4,15:15-15:30,2,1,1
4,15:30-15:45,2,3,3
4,15:45-16:00,2,2,2
4,16:00-16:15,2,3,3
4,16:15-16:30,2,3,3
4,16:30-16:45,2,1,1
4,16:45-17:00,2,2,2
4,17:00-17:15,2,2,2
4,17:15-17:30,2,2,2
4,17:30-17:45,2,2,2
4,17:45-18:00,2,2,2
4,18:00-18:15,2,3,3
4,18:15-18:30,2,2,2
4,18:30-18:45,2,1,1
4,18:45-19:00,2,2,2
4,19:00-19:15,2,1,1
4,19:15-19:30,2,2,2
4,19:30-19:45,2,1,1
4,19:45-20:00,2,3,3
4,20:00-20:15,2,3,3
4,20:15-20:30,2,3,3
4,20:30-20:45,2,3,3
4,20:45-21:00,2,4,4
4,21:00-21:15,2,4,4
4,21:15-21:30,2,3,3
4,21:30-21:45,2,3,3
4,21:45-22:00,2,4,4
4,22:00-22:15,2,4,4
4,22:15-22:30,2,2,2
4,22:30-22:45,2,1,1
4,22:45-23:00,2,4,4
4,23:00-23:15,2,2,2
4,23:15-23:30,2,2,2
4,23:30-23:45,2,3,3
4,23:45-00:00,2,4,4
5,00:00-00:15,2,2,2
5,00:15-00:30,2,3,3
5,00:30-00:45,2,4,4
5,00:45-01:00,2,2,2
5,01:00-01:15,2,3,3
5,01:15-01:30,2,2,2
5,01:30-01:45,2,1,1
5,01:45-02:00,2,2,2
5,02:00-02:15,2,2,2
5,02:15-02:30,2,1,1
5,02:30-02:45,2,2,2
5,02:45-03:00,2,2,2
5,03:00-03:15,2,3,3
5,03:15-03:30,2,2,2
5,03:30-03:45,2,2,2
5,03:45-04:00,2,3,3
5,04:00-04:15,2,2,2
5,04:15-04:30,2,2,2
5,04:30-04:45,2,2,2
5,04:45-05:00,2,1,1
5,05:00-05:15,2,4,4
5,05:15-05:30,2,3,3
5,05:30-05:45,2,2,2
5,05:45-06:00,2,3,3
5,06:00-06:15,2,2,2
5,06:15-06:30,2,2,2
5,06:30-06:45,2,3,3
5,06:45-07:00,2,2,2
5,07:00-07:15,2,1,1
5,07:15-07:30,2,3,3
5,07:30-07:45,2,3,3
5,07:45-08:00,2,2,2
5,08:00-08:15,2,3,3
5,08:15-08:30,2,3,3
5,08:30-08:45,2,2,2
5,08:45-09:00,2,2,2
5,09:00-09:15,2,2,2
5,09:15-09:30,2,2,2
5,09:30-09:45,2,3,3
5,09:45-10:00,2,1,1
5,10:00-10:15,2,2,2
5,10:15-10:30,2,3,3
5,10:30-10:45,2,2,2
5,10:45-11:00,2,3,3
5,11:00-11:15,2,3,3
5,11:15-11:30,2,2,2
5,11:30-11:45,2,3,3
5,11:45-12:00,2,2,2
5,12:00-12:15,2,2,2
5,12:15-12:30,2,2,2
5,12:30-12:45,2,2,2
5,12:45-13:00,2,1,1
5,13:00-13:15,2,2,2
5,13:15-13:30,2,3,3
5,13:30-13:45,2,1,1
5,13:45-14:00,2,2,2
5,14:00-14:15,2,3,3
5,14:15-14:30,2,1,1
5,14:30-14:45,2,2,2
5,14:45-15:00,2,2,2
5,15:00-15:15,2,3,3
5,15:15-15:30,2,4,4
5,15:30-15:45,2,3,3
5,15:45-16:00,2,3,3
5,16:00-16:15,2,1,1
5,16:15-16:30,2,2,2
5,16:30-16:45,2,3,3
5,16:45-17:00,2,2,2
5,17:00-17:15,2,1,1
5,17:15-17:30,2,2,2
5,17:30-17:45,2,2,2
5,17:45-18:00,2,2,2
5,18:00-18:15,2,3,3
5,18:15-18:30,2,1,1
5,18:30-18:45,2,3,3
5,18:45-19:00,2,3,3
5,19:00-19:15,2,1,1
5,19:15-19:30,2,3,3
5,19:30-19:45,2,3,3
5,19:45-20:00,2,1,1
5,20:00-20:15,2,2,2
5,20:15-20:30,2,2,2
5,20:30-20:45,2,3,3
5,20:45-21:00,2,3,3
5,21:00-21:15,2,2,2
5,21:15-21:30,2,3,3
5,21:30-21:45,2,2,2
5,21:45-22:00,2,2,2
5,22:00-22:15,2,2,2
5,22:15-22:30,2,3,3
5,22:30-22:45,2,2,2
5,22:45-23:00,2,2,2
5,23:00-23:15,2,1,1
5,23:15-23:30,2,2,2
5,23:30-23:45,2,2,2
5,23:45-00:00,2,2,2
6,00:00-00:15,2,4,4
6,00:15-00:30,2,2,2
6,00:30-00:45,2,4,4
6,00:45-01:00,2,2,2
6,01:00-01:15,2,2,2
6,01:15-01:30,2,2,2
6,01:30-01:45,2,2,2
6,01:45-02:00,2,1,1
6,02:00-02:15,2,3,3
6,02:15-02:30,2,1,1
6,02:30-02:45,2,2,2
6,02:45-03:00,2,2,2
6,03:00-03:15,2,1,1
6,03:15-03:30,2,2,2
6,03:30-03:45,2,2,2
6,03:45-04:00,2,1,1
6,04:00-04:15,2,2,2
6,04:15-04:30,2,2,2
6,04:30-04:45,2,3,3
6,04:45-05:00,2,1,1
6,05:00-05:15,2,3,3
6,05:15-05:30,2,2,2
6,05:30-05:45,2,2,2
6,05:45-06:00,2,1,1
6,06:00-06:15,2,3,3
6,06:15-06:30,2,1,1
6,06:30-06:45,2,2,2
6,06:45-07:00,2,2,2
6,07:00-07:15,2,3,3
6,07:15-07:30,2,1,1
6,07:30-07:45,2,3,3
6,07:45-08:00,2,2,2
6,08:00-08:15,2,3,3
6,08:15-08:30,2,3,3
6,08:30-08:45,2,2,2
6,08:45-09:00,2,1,1
6,09:00-09:15,2,3,3
6,09:15-09:30,2,2,2
6,09:30-09:45,2,3,3
6,09:45-10:00,2,3,3
6,10:00-10:15,2,3,3
6,10:15-10:30,2,4,4
6,10:30-10:45,2,4,4
6,10:45-11:00,2,3,3
6,11:00-11:15,2,3,3
6,11:15-11:30,2,3,3
6,11:30-11:45,2,3,3
6,11:45-12:00,2,2,2
6,12:00-12:15,2,3,3
6,12:15-12:30,2,3,3
6,12:30-12:45,2,2,2
6,12:45-13:00,2,4,4
6,13:00-13:15,2,2,2
6,13:15-13:30,2,2,2
6,13:30-13:45,2,2,2
6,13:45-14:00,2,2,2
6,14:00-14:15,2,3,3
6,14:15-14:30,2,2,2
6,14:30-14:45,2,2,2
6,14:45-15:00,2,2,2
6,15:00-15:15,2,3,3
6,15:15-15:30,2,3,3
6,15:30-15:45,2,2,2
6,15:45-16:00,2,3,3
6,16:00-16:15,2,3,3
6,16:15-16:30,2,1,1
6,16:30-16:45,2,3,3
6,16:45-17:00,2,4,4
6,17:00-17:15,2,2,2
6,17:15-17:30,2,3,3
6,17:30-17:45,2,2,2
6,17:45-18:00,2,1,1
6,18:00-18:15,2,3,3
6,18:15-18:30,2,2,2
6,18:30-18:45,2,3,3
6,18:45-19:00,2,1,1
6,19:00-19:15,2,2,2
6,19:15-19:30,2,3,3
6,19:30-19:45,2,2,2
6,19:45-20:00,2,2,2
6,20:00-20:15,2,2,2
6,20:15-20:30,2,2,2
6,20:30-20:45,2,3,3
6,20:45-21:00,2,2,2
6,21:00-21:15,2,1,1
6,21:15-21:30,2,2,2
6,21:30-21:45,2,2,2
6,21:45-22:00,2,3,3
6,22:00-22:15,2,2,2
6,22:15-22:30,2,3,3
6,22:30-22:45,2,2,2
6,22:45-23:00,2,3,3
6,23:00-23:15,2,3,3
6,23:15-23:30,2,4,4
6,23:30-23:45,2,3,3
6,23:45-00:00,2,2,2
7,00:00-00:15,2,3,3
7,00:15-00:30,2,4,4
7,00:30-00:45,2,3,3
7,00:45-01:00,2,3,3
7,01:00-01:15,2,3,3
7,01:15-01:30,2,3,3
7,01:30-01:45,2,3,3
7,01:45-02:00,2,2,2
7,02:00-02:15,2,1,1
7,02:15-02:30,2,1,1
7,02:30-02:45,2,3,3
7,02:45-03:00,2,1,1
7,03:00-03:15,2,2,2
7,03:15-03:30,2,2,2
7,03:30-03:45,2,2,2
7,03:45-04:00,2,3,3
7,04:00-04:15,2,1,1
7,04:15-04:30,2,1,1
7,04:30-04:45,2,3,3
7,04:45-05:00,2,2,2
7,05:00-05:15,2,1,1
7,05:15-05:30,2,3,3
7,05:30-05:45,2,3,3
7,05:45-06:00,2,2,2
7,06:00-06:15,2,3,3
7,06:15-06:30,2,3,3
7,06:30-06:45,2,3,3
7,06:45-07:00,2,3,3
7,07:00-07:15,2,4,4
7,07:15-07:30,2,4,4
7,07:30-07:45,2,2,2
7,07:45-08:00,2,3,3
7,08:00-08:15,2,3,3
7,08:15-08:30,2,2,2
7,08:30-08:45,2,2,2
7,08:45-09:00,2,4,4
7,09:00-09:15,2,3,3
7,09:15-09:30,2,4,4
7,09:30-09:45,2,3,3
7,09:45-10:00,2,2,2
7,10:00-10:15,2,2,2
7,10:15-10:30,2,2,2
7,10:30-10:45,2,2,2
7,10:45-11:00,2,3,3
7,11:00-11:15,2,2,2
7,11:15-11:30,2,2,2
7,11:30-11:45,2,2,2
7,11:45-12:00,2,3,3
7,12:00-12:15,2,2,2
7,12:15-12:30,2,2,2
7,12:30-12:45,2,2,2
7,12:45-13:00,2,2,2
7,13:00-13:15,2,1,1
7,13:15-13:30,2,1,1
7,13:30-13:45,2,2,2
7,13:45-14:00,2,2,2
7,14:00-14:15,2,2,2
7,14:15-14:30,2,4,4
7,14:30-14:45,2,2,2
7,14:45-15:00,2,3,3
7,15:00-15:15,2,3,3
7,15:15-15:30,2,3,3
7,15:30-15:45,2,2,2
7,15:45-16:00,2,2,2
7,16:00-16:15,2,2,2
7,16:15-16:30,2,1,1
7,16:30-16:45,2,3,3
7,16:45-17:00,2,3,3
7,17:00-17:15,2,2,2
7,17:15-17:30,2,3,3
7,17:30-17:45,2,2,2
7,17:45-18:00,2,1,1
7,18:00-18:15,2,2,2
7,18:15-18:30,2,2,2
7,18:30-18:45,2,3,3
7,18:45-19:00,2,2,2
7,19:00-19:15,2,2,2
7,19:15-19:30,2,3,3
7,19:30-19:45,2,3,3
7,19:45-20:00,2,3,3
7,20:00-20:15,2,3,3
7,20:15-20:30,2,2,2
7,20:30-20:45,2,3,3
7,20:45-21:00,2,2,2
7,21:00-21:15,2,2,2
7,21:15-21:30,2,3,3
7,21:30-21:45,2,3,3
7,21:45-22:00,2,4,4
7,22:00-22:15,2,4,4
7,22:15-22:30,2,3,3
7,22:30-22:45,2,3,3
7,22:45-23:00,2,3,3
7,23:00-23:15,2,4,4
7,23:15-23:30,2,3,3
7,23:30-23:45,2,4,4
7,23:45-00:00,2,3,3
8,00:00-00:15,2,1,1
8,00:15-00:30,2,1,1
8,00:30-00:45,2,2,2
8,00:45-01:00,2,2,2
8,01:00-01:15,2,2,2
8,01:15-01:30,2,1,1
8,01:30-01:45,2,2,2
8,01:45-02:00,2,2,2
8,02:00-02:15,2,1,1
8,02:15-02:30,2,1,1
8,02:30-02:45,2,1,1
8,02:45-03:00,2,2,2
8,03:00-03:15,2,2,2
8,03:15-03:30,2,1,1
8,03:30-03:45,2,2,2
8,03:45-04:00,2,1,1
8,04:00-04:15,2,1,1
8,04:15-04:30,2,2,2
8,04:30-04:45,2,2,2
8,04:45-05:00,2,2,2
8,05:00-05:15,2,2,2
8,05:15-05:30,2,3,3
8,05:30-05:45,2,3,3
8,05:45-06:00,2,3,3

